59 5 63 47 27 33 12 21 15 23 73 40 7 18 41 34 50 46 37 43 13 74 4 17 70 58 
39 72 45 31 62 52 14 11 64 19 22 57 53 6 3 20 10 26 68 60 32 1 24 25 
36 2 42 69 28 30 75 67 51 8 49 56 55 66 35 48 
65 29 71 61 16 38 9 54 
44 

